12° run output:
{
    "Function": "kroB500.tsp",
    "Problem dimension": [
        472,
        183,
        450,
        219,
        463,
        159,
        240,
        78,
        108,
        384,
        401,
        291,
        145,
        321,
        323,
        495,
        361,
        351,
        226,
        436,
        139,
        228,
        216,
        143,
        222,
        154,
        175,
        309,
        6,
        467,
        206,
        50,
        428,
        330,
        279,
        163,
        425,
        17,
        359,
        372,
        75,
        440,
        242,
        233,
        90,
        171,
        12,
        191,
        452,
        223,
        446,
        430,
        63,
        173,
        166,
        2,
        137,
        474,
        415,
        213,
        167,
        86,
        320,
        37,
        217,
        147,
        118,
        328,
        100,
        92,
        227,
        67,
        409,
        345,
        187,
        465,
        237,
        43,
        396,
        407,
        25,
        310,
        496,
        313,
        364,
        346,
        449,
        252,
        241,
        367,
        81,
        265,
        125,
        101,
        317,
        395,
        286,
        490,
        208,
        418,
        264,
        236,
        155,
        42,
        110,
        499,
        71,
        370,
        420,
        14,
        292,
        344,
        362,
        209,
        303,
        278,
        211,
        0,
        3,
        439,
        202,
        177,
        347,
        486,
        188,
        376,
        408,
        178,
        277,
        305,
        29,
        133,
        89,
        153,
        423,
        391,
        218,
        466,
        162,
        447,
        123,
        138,
        232,
        392,
        294,
        170,
        142,
        386,
        87,
        492,
        488,
        64,
        442,
        7,
        122,
        68,
        196,
        255,
        329,
        52,
        290,
        136,
        91,
        302,
        127,
        16,
        369,
        424,
        319,
        335,
        197,
        231,
        435,
        121,
        247,
        83,
        141,
        128,
        268,
        491,
        185,
        438,
        119,
        47,
        21,
        270,
        258,
        243,
        297,
        94,
        58,
        65,
        225,
        274,
        253,
        160,
        400,
        106,
        482,
        398,
        235,
        280,
        54,
        334,
        239,
        72,
        405,
        322,
        266,
        215,
        366,
        1,
        13,
        234,
        468,
        256,
        484,
        126,
        340,
        174,
        475,
        74,
        341,
        45,
        107,
        224,
        9,
        40,
        307,
        421,
        293,
        353,
        230,
        88,
        382,
        245,
        350,
        82,
        338,
        432,
        59,
        32,
        124,
        456,
        73,
        383,
        326,
        365,
        343,
        416,
        394,
        298,
        244,
        434,
        157,
        35,
        238,
        288,
        429,
        69,
        53,
        271,
        251,
        98,
        448,
        308,
        299,
        479,
        36,
        431,
        390,
        457,
        497,
        485,
        355,
        115,
        284,
        493,
        22,
        314,
        179,
        156,
        70,
        273,
        28,
        342,
        327,
        283,
        204,
        10,
        318,
        272,
        417,
        261,
        221,
        34,
        31,
        135,
        56,
        458,
        189,
        399,
        316,
        426,
        455,
        24,
        15,
        348,
        168,
        61,
        427,
        112,
        55,
        165,
        182,
        152,
        201,
        276,
        186,
        404,
        132,
        451,
        483,
        379,
        410,
        381,
        250,
        144,
        259,
        33,
        267,
        443,
        44,
        295,
        102,
        333,
        30,
        380,
        285,
        194,
        412,
        207,
        114,
        336,
        301,
        181,
        388,
        180,
        27,
        96,
        454,
        357,
        66,
        193,
        93,
        248,
        195,
        249,
        469,
        57,
        60,
        190,
        130,
        149,
        148,
        263,
        5,
        339,
        246,
        461,
        260,
        397,
        413,
        210,
        311,
        131,
        19,
        120,
        77,
        117,
        385,
        289,
        62,
        356,
        158,
        445,
        354,
        414,
        374,
        200,
        476,
        433,
        214,
        304,
        254,
        172,
        498,
        389,
        324,
        39,
        487,
        99,
        79,
        349,
        377,
        8,
        103,
        262,
        51,
        46,
        337,
        97,
        363,
        464,
        18,
        437,
        371,
        212,
        411,
        444,
        331,
        478,
        203,
        358,
        229,
        95,
        315,
        164,
        453,
        111,
        332,
        205,
        134,
        192,
        150,
        441,
        494,
        23,
        296,
        489,
        275,
        105,
        470,
        220,
        352,
        48,
        325,
        198,
        113,
        161,
        129,
        477,
        282,
        422,
        287,
        116,
        378,
        403,
        41,
        146,
        109,
        393,
        481,
        169,
        26,
        387,
        300,
        11,
        402,
        140,
        76,
        49,
        151,
        406,
        471,
        184,
        375,
        360,
        104,
        257,
        80,
        460,
        306,
        473,
        312,
        4,
        368,
        38,
        462,
        84,
        373,
        480,
        199,
        176,
        281,
        85,
        269,
        459,
        419,
        20
    ],
    "Global Optimum": 0,
    "Algorithm": "Genetic algorithm",
    "Parameters": {
        "population": 30,
        "offspring": 30,
        "mutation probability": 0.002,
        "crossover probability": 0.9
    },
    "Fitness": 509055,
    "Solution": [
        472,
        183,
        450,
        219,
        463,
        159,
        240,
        78,
        108,
        384,
        401,
        291,
        145,
        321,
        323,
        495,
        361,
        351,
        226,
        436,
        139,
        228,
        216,
        143,
        222,
        154,
        175,
        309,
        6,
        467,
        206,
        50,
        428,
        330,
        279,
        163,
        425,
        17,
        359,
        372,
        75,
        440,
        242,
        233,
        90,
        171,
        12,
        191,
        452,
        223,
        446,
        430,
        63,
        173,
        166,
        2,
        137,
        474,
        415,
        213,
        167,
        86,
        320,
        37,
        217,
        147,
        118,
        328,
        100,
        92,
        227,
        67,
        409,
        345,
        187,
        465,
        237,
        43,
        396,
        407,
        25,
        310,
        496,
        313,
        364,
        346,
        449,
        252,
        241,
        367,
        81,
        265,
        125,
        101,
        317,
        395,
        286,
        490,
        208,
        418,
        264,
        236,
        155,
        42,
        110,
        499,
        71,
        370,
        420,
        14,
        292,
        344,
        362,
        209,
        303,
        278,
        211,
        0,
        3,
        439,
        202,
        177,
        347,
        486,
        188,
        376,
        408,
        178,
        277,
        305,
        29,
        133,
        89,
        153,
        423,
        391,
        218,
        466,
        162,
        447,
        123,
        138,
        232,
        392,
        294,
        170,
        142,
        386,
        87,
        492,
        488,
        64,
        442,
        7,
        122,
        68,
        196,
        255,
        329,
        52,
        290,
        136,
        91,
        302,
        127,
        16,
        369,
        424,
        319,
        335,
        197,
        231,
        435,
        121,
        247,
        83,
        141,
        128,
        268,
        491,
        185,
        438,
        119,
        47,
        21,
        270,
        258,
        243,
        297,
        94,
        58,
        65,
        225,
        274,
        253,
        160,
        400,
        106,
        482,
        398,
        235,
        280,
        54,
        334,
        239,
        72,
        405,
        322,
        266,
        215,
        366,
        1,
        13,
        234,
        468,
        256,
        484,
        126,
        340,
        174,
        475,
        74,
        341,
        45,
        107,
        224,
        9,
        40,
        307,
        421,
        293,
        353,
        230,
        88,
        382,
        245,
        350,
        82,
        338,
        432,
        59,
        32,
        124,
        456,
        73,
        383,
        326,
        365,
        343,
        416,
        394,
        298,
        244,
        434,
        157,
        35,
        238,
        288,
        429,
        69,
        53,
        271,
        251,
        98,
        448,
        308,
        299,
        479,
        36,
        431,
        390,
        457,
        497,
        485,
        355,
        115,
        284,
        493,
        22,
        314,
        179,
        156,
        70,
        273,
        28,
        342,
        327,
        283,
        204,
        10,
        318,
        272,
        417,
        261,
        221,
        34,
        31,
        135,
        56,
        458,
        189,
        399,
        316,
        426,
        455,
        24,
        15,
        348,
        168,
        61,
        427,
        112,
        55,
        165,
        182,
        152,
        201,
        276,
        186,
        404,
        132,
        451,
        483,
        379,
        410,
        381,
        250,
        144,
        259,
        33,
        267,
        443,
        44,
        295,
        102,
        333,
        30,
        380,
        285,
        194,
        412,
        207,
        114,
        336,
        301,
        181,
        388,
        180,
        27,
        96,
        454,
        357,
        66,
        193,
        93,
        248,
        195,
        249,
        469,
        57,
        60,
        190,
        130,
        149,
        148,
        263,
        5,
        339,
        246,
        461,
        260,
        397,
        413,
        210,
        311,
        131,
        19,
        120,
        77,
        117,
        385,
        289,
        62,
        356,
        158,
        445,
        354,
        414,
        374,
        200,
        476,
        433,
        214,
        304,
        254,
        172,
        498,
        389,
        324,
        39,
        487,
        99,
        79,
        349,
        377,
        8,
        103,
        262,
        51,
        46,
        337,
        97,
        363,
        464,
        18,
        437,
        371,
        212,
        411,
        444,
        331,
        478,
        203,
        358,
        229,
        95,
        315,
        164,
        453,
        111,
        332,
        205,
        134,
        192,
        150,
        441,
        494,
        23,
        296,
        489,
        275,
        105,
        470,
        220,
        352,
        48,
        325,
        198,
        113,
        161,
        129,
        477,
        282,
        422,
        287,
        116,
        378,
        403,
        41,
        146,
        109,
        393,
        481,
        169,
        26,
        387,
        300,
        11,
        402,
        140,
        76,
        49,
        151,
        406,
        471,
        184,
        375,
        360,
        104,
        257,
        80,
        460,
        306,
        473,
        312,
        4,
        368,
        38,
        462,
        84,
        373,
        480,
        199,
        176,
        281,
        85,
        269,
        459,
        419,
        20
    ],
    "Nb of functions evaluations": 400020,
    "Computational time in seconds": 1469.717741727829,
    "Stopping criterion in evaluations": 400000
}